p cnf 225 1485
1 2 3 4 5 0
6 7 8 9 10 0
11 12 13 14 15 0
16 17 18 19 20 0
21 22 23 24 25 0
26 27 28 29 30 0
31 32 33 34 35 0
36 37 38 39 40 0
41 42 43 44 45 0
46 47 48 49 50 0
51 52 53 54 55 0
56 57 58 59 60 0
61 62 63 64 65 0
66 67 68 69 70 0
71 72 73 74 75 0
76 77 78 79 80 0
81 82 83 84 85 0
86 87 88 89 90 0
91 92 93 94 95 0
96 97 98 99 100 0
101 102 103 104 105 0
106 107 108 109 110 0
111 112 113 114 115 0
116 117 118 119 120 0
121 122 123 124 125 0
126 127 128 129 130 0
131 132 133 134 135 0
136 137 138 139 140 0
141 142 143 144 145 0
146 147 148 149 150 0
151 152 153 154 155 0
156 157 158 159 160 0
161 162 163 164 165 0
166 167 168 169 170 0
171 172 173 174 175 0
176 177 178 179 180 0
181 182 183 184 185 0
186 187 188 189 190 0
191 192 193 194 195 0
196 197 198 199 200 0
201 202 203 204 205 0
206 207 208 209 210 0
211 212 213 214 215 0
216 217 218 219 220 0
221 222 223 224 225 0
-1 -2 0
-1 -3 0
-1 -4 0
-1 -5 0
-2 -3 0
-2 -4 0
-2 -5 0
-3 -4 0
-3 -5 0
-4 -5 0
-6 -7 0
-6 -8 0
-6 -9 0
-6 -10 0
-7 -8 0
-7 -9 0
-7 -10 0
-8 -9 0
-8 -10 0
-9 -10 0
-11 -12 0
-11 -13 0
-11 -14 0
-11 -15 0
-12 -13 0
-12 -14 0
-12 -15 0
-13 -14 0
-13 -15 0
-14 -15 0
-16 -17 0
-16 -18 0
-16 -19 0
-16 -20 0
-17 -18 0
-17 -19 0
-17 -20 0
-18 -19 0
-18 -20 0
-19 -20 0
-21 -22 0
-21 -23 0
-21 -24 0
-21 -25 0
-22 -23 0
-22 -24 0
-22 -25 0
-23 -24 0
-23 -25 0
-24 -25 0
-26 -27 0
-26 -28 0
-26 -29 0
-26 -30 0
-27 -28 0
-27 -29 0
-27 -30 0
-28 -29 0
-28 -30 0
-29 -30 0
-31 -32 0
-31 -33 0
-31 -34 0
-31 -35 0
-32 -33 0
-32 -34 0
-32 -35 0
-33 -34 0
-33 -35 0
-34 -35 0
-36 -37 0
-36 -38 0
-36 -39 0
-36 -40 0
-37 -38 0
-37 -39 0
-37 -40 0
-38 -39 0
-38 -40 0
-39 -40 0
-41 -42 0
-41 -43 0
-41 -44 0
-41 -45 0
-42 -43 0
-42 -44 0
-42 -45 0
-43 -44 0
-43 -45 0
-44 -45 0
-46 -47 0
-46 -48 0
-46 -49 0
-46 -50 0
-47 -48 0
-47 -49 0
-47 -50 0
-48 -49 0
-48 -50 0
-49 -50 0
-51 -52 0
-51 -53 0
-51 -54 0
-51 -55 0
-52 -53 0
-52 -54 0
-52 -55 0
-53 -54 0
-53 -55 0
-54 -55 0
-56 -57 0
-56 -58 0
-56 -59 0
-56 -60 0
-57 -58 0
-57 -59 0
-57 -60 0
-58 -59 0
-58 -60 0
-59 -60 0
-61 -62 0
-61 -63 0
-61 -64 0
-61 -65 0
-62 -63 0
-62 -64 0
-62 -65 0
-63 -64 0
-63 -65 0
-64 -65 0
-66 -67 0
-66 -68 0
-66 -69 0
-66 -70 0
-67 -68 0
-67 -69 0
-67 -70 0
-68 -69 0
-68 -70 0
-69 -70 0
-71 -72 0
-71 -73 0
-71 -74 0
-71 -75 0
-72 -73 0
-72 -74 0
-72 -75 0
-73 -74 0
-73 -75 0
-74 -75 0
-76 -77 0
-76 -78 0
-76 -79 0
-76 -80 0
-77 -78 0
-77 -79 0
-77 -80 0
-78 -79 0
-78 -80 0
-79 -80 0
-81 -82 0
-81 -83 0
-81 -84 0
-81 -85 0
-82 -83 0
-82 -84 0
-82 -85 0
-83 -84 0
-83 -85 0
-84 -85 0
-86 -87 0
-86 -88 0
-86 -89 0
-86 -90 0
-87 -88 0
-87 -89 0
-87 -90 0
-88 -89 0
-88 -90 0
-89 -90 0
-91 -92 0
-91 -93 0
-91 -94 0
-91 -95 0
-92 -93 0
-92 -94 0
-92 -95 0
-93 -94 0
-93 -95 0
-94 -95 0
-96 -97 0
-96 -98 0
-96 -99 0
-96 -100 0
-97 -98 0
-97 -99 0
-97 -100 0
-98 -99 0
-98 -100 0
-99 -100 0
-101 -102 0
-101 -103 0
-101 -104 0
-101 -105 0
-102 -103 0
-102 -104 0
-102 -105 0
-103 -104 0
-103 -105 0
-104 -105 0
-106 -107 0
-106 -108 0
-106 -109 0
-106 -110 0
-107 -108 0
-107 -109 0
-107 -110 0
-108 -109 0
-108 -110 0
-109 -110 0
-111 -112 0
-111 -113 0
-111 -114 0
-111 -115 0
-112 -113 0
-112 -114 0
-112 -115 0
-113 -114 0
-113 -115 0
-114 -115 0
-116 -117 0
-116 -118 0
-116 -119 0
-116 -120 0
-117 -118 0
-117 -119 0
-117 -120 0
-118 -119 0
-118 -120 0
-119 -120 0
-121 -122 0
-121 -123 0
-121 -124 0
-121 -125 0
-122 -123 0
-122 -124 0
-122 -125 0
-123 -124 0
-123 -125 0
-124 -125 0
-126 -127 0
-126 -128 0
-126 -129 0
-126 -130 0
-127 -128 0
-127 -129 0
-127 -130 0
-128 -129 0
-128 -130 0
-129 -130 0
-131 -132 0
-131 -133 0
-131 -134 0
-131 -135 0
-132 -133 0
-132 -134 0
-132 -135 0
-133 -134 0
-133 -135 0
-134 -135 0
-136 -137 0
-136 -138 0
-136 -139 0
-136 -140 0
-137 -138 0
-137 -139 0
-137 -140 0
-138 -139 0
-138 -140 0
-139 -140 0
-141 -142 0
-141 -143 0
-141 -144 0
-141 -145 0
-142 -143 0
-142 -144 0
-142 -145 0
-143 -144 0
-143 -145 0
-144 -145 0
-146 -147 0
-146 -148 0
-146 -149 0
-146 -150 0
-147 -148 0
-147 -149 0
-147 -150 0
-148 -149 0
-148 -150 0
-149 -150 0
-151 -152 0
-151 -153 0
-151 -154 0
-151 -155 0
-152 -153 0
-152 -154 0
-152 -155 0
-153 -154 0
-153 -155 0
-154 -155 0
-156 -157 0
-156 -158 0
-156 -159 0
-156 -160 0
-157 -158 0
-157 -159 0
-157 -160 0
-158 -159 0
-158 -160 0
-159 -160 0
-161 -162 0
-161 -163 0
-161 -164 0
-161 -165 0
-162 -163 0
-162 -164 0
-162 -165 0
-163 -164 0
-163 -165 0
-164 -165 0
-166 -167 0
-166 -168 0
-166 -169 0
-166 -170 0
-167 -168 0
-167 -169 0
-167 -170 0
-168 -169 0
-168 -170 0
-169 -170 0
-171 -172 0
-171 -173 0
-171 -174 0
-171 -175 0
-172 -173 0
-172 -174 0
-172 -175 0
-173 -174 0
-173 -175 0
-174 -175 0
-176 -177 0
-176 -178 0
-176 -179 0
-176 -180 0
-177 -178 0
-177 -179 0
-177 -180 0
-178 -179 0
-178 -180 0
-179 -180 0
-181 -182 0
-181 -183 0
-181 -184 0
-181 -185 0
-182 -183 0
-182 -184 0
-182 -185 0
-183 -184 0
-183 -185 0
-184 -185 0
-186 -187 0
-186 -188 0
-186 -189 0
-186 -190 0
-187 -188 0
-187 -189 0
-187 -190 0
-188 -189 0
-188 -190 0
-189 -190 0
-191 -192 0
-191 -193 0
-191 -194 0
-191 -195 0
-192 -193 0
-192 -194 0
-192 -195 0
-193 -194 0
-193 -195 0
-194 -195 0
-196 -197 0
-196 -198 0
-196 -199 0
-196 -200 0
-197 -198 0
-197 -199 0
-197 -200 0
-198 -199 0
-198 -200 0
-199 -200 0
-201 -202 0
-201 -203 0
-201 -204 0
-201 -205 0
-202 -203 0
-202 -204 0
-202 -205 0
-203 -204 0
-203 -205 0
-204 -205 0
-206 -207 0
-206 -208 0
-206 -209 0
-206 -210 0
-207 -208 0
-207 -209 0
-207 -210 0
-208 -209 0
-208 -210 0
-209 -210 0
-211 -212 0
-211 -213 0
-211 -214 0
-211 -215 0
-212 -213 0
-212 -214 0
-212 -215 0
-213 -214 0
-213 -215 0
-214 -215 0
-216 -217 0
-216 -218 0
-216 -219 0
-216 -220 0
-217 -218 0
-217 -219 0
-217 -220 0
-218 -219 0
-218 -220 0
-219 -220 0
-221 -222 0
-221 -223 0
-221 -224 0
-221 -225 0
-222 -223 0
-222 -224 0
-222 -225 0
-223 -224 0
-223 -225 0
-224 -225 0
-3 -8 0
-4 -10 0
-4 -12 0
-5 -11 0
-5 -33 0
-1 -31 0
-4 -41 0
-3 -43 0
-3 -55 0
-3 -53 0
-5 -64 0
-4 -65 0
-1 -90 0
-5 -86 0
-3 -105 0
-1 -101 0
-5 -109 0
-3 -107 0
-2 -118 0
-4 -117 0
-4 -138 0
-5 -136 0
-3 -146 0
-4 -146 0
-5 -163 0
-5 -164 0
-2 -167 0
-2 -170 0
-1 -179 0
-1 -177 0
-5 -181 0
-3 -184 0
-5 -186 0
-1 -188 0
-5 -191 0
-1 -194 0
-4 -196 0
-2 -196 0
-4 -210 0
-2 -210 0
-1 -214 0
-1 -211 0
-5 -218 0
-4 -218 0
-7 -15 0
-9 -15 0
-6 -16 0
-8 -17 0
-10 -29 0
-6 -30 0
-6 -33 0
-6 -35 0
-10 -44 0
-6 -43 0
-10 -55 0
-7 -52 0
-7 -89 0
-9 -90 0
-7 -97 0
-7 -99 0
-7 -107 0
-6 -106 0
-8 -112 0
-7 -115 0
-10 -116 0
-7 -118 0
-6 -128 0
-6 -129 0
-7 -136 0
-7 -138 0
-9 -145 0
-6 -145 0
-9 -147 0
-6 -148 0
-7 -151 0
-9 -153 0
-6 -168 0
-8 -167 0
-6 -171 0
-10 -171 0
-10 -179 0
-6 -176 0
-10 -191 0
-9 -194 0
-10 -200 0
-10 -199 0
-9 -204 0
-7 -202 0
-9 -210 0
-9 -209 0
-6 -213 0
-6 -215 0
-11 -19 0
-15 -19 0
-12 -32 0
-14 -35 0
-13 -36 0
-12 -39 0
-15 -42 0
-14 -45 0
-12 -50 0
-11 -49 0
-13 -63 0
-14 -63 0
-13 -67 0
-15 -69 0
-14 -79 0
-11 -79 0
-15 -88 0
-11 -90 0
-13 -97 0
-15 -97 0
-12 -116 0
-12 -120 0
-13 -122 0
-13 -124 0
-13 -130 0
-15 -128 0
-13 -147 0
-11 -147 0
-11 -155 0
-14 -151 0
-15 -158 0
-11 -156 0
-12 -163 0
-12 -161 0
-14 -167 0
-13 -167 0
-12 -202 0
-14 -202 0
-11 -211 0
-15 -213 0
-15 -216 0
-14 -216 0
-17 -27 0
-18 -28 0
-20 -31 0
-20 -35 0
-17 -36 0
-17 -40 0
-16 -77 0
-16 -80 0
-20 -84 0
-20 -83 0
-16 -97 0
-17 -97 0
-18 -107 0
-20 -110 0
-18 -112 0
-19 -115 0
-17 -118 0
-17 -117 0
-18 -135 0
-16 -135 0
-19 -139 0
-17 -139 0
-16 -143 0
-17 -141 0
-18 -150 0
-19 -150 0
-20 -161 0
-18 -163 0
-17 -167 0
-19 -168 0
-18 -179 0
-20 -180 0
-18 -196 0
-17 -197 0
-19 -203 0
-18 -205 0
-19 -213 0
-19 -211 0
-16 -219 0
-19 -218 0
-19 -224 0
-17 -222 0
-24 -32 0
-22 -32 0
-25 -43 0
-23 -44 0
-23 -51 0
-25 -55 0
-22 -86 0
-21 -88 0
-21 -109 0
-22 -108 0
-22 -117 0
-23 -117 0
-21 -123 0
-23 -125 0
-22 -134 0
-23 -134 0
-23 -139 0
-22 -138 0
-25 -153 0
-22 -153 0
-23 -160 0
-22 -158 0
-22 -185 0
-24 -182 0
-22 -189 0
-24 -186 0
-22 -194 0
-22 -195 0
-22 -199 0
-24 -198 0
-23 -203 0
-24 -204 0
-26 -60 0
-30 -60 0
-27 -70 0
-29 -69 0
-28 -80 0
-26 -78 0
-27 -82 0
-30 -85 0
-27 -90 0
-29 -88 0
-26 -92 0
-30 -91 0
-29 -99 0
-28 -96 0
-28 -127 0
-30 -127 0
-27 -136 0
-26 -140 0
-30 -146 0
-27 -147 0
-27 -153 0
-28 -151 0
-27 -159 0
-26 -158 0
-29 -163 0
-28 -162 0
-27 -167 0
-26 -170 0
-26 -178 0
-28 -178 0
-30 -181 0
-30 -183 0
-29 -191 0
-28 -195 0
-26 -200 0
-27 -197 0
-27 -207 0
-26 -208 0
-26 -223 0
-26 -222 0
-32 -41 0
-33 -42 0
-33 -49 0
-35 -48 0
-35 -57 0
-34 -57 0
-34 -65 0
-34 -62 0
-34 -72 0
-31 -75 0
-32 -80 0
-32 -78 0
-34 -82 0
-34 -83 0
-33 -87 0
-31 -87 0
-33 -109 0
-33 -110 0
-33 -118 0
-35 -116 0
-34 -147 0
-31 -149 0
-35 -151 0
-31 -154 0
-34 -157 0
-32 -160 0
-32 -165 0
-34 -163 0
-35 -168 0
-33 -170 0
-31 -176 0
-34 -176 0
-33 -188 0
-33 -187 0
-31 -199 0
-33 -196 0
-31 -202 0
-31 -204 0
-35 -213 0
-32 -212 0
-35 -225 0
-32 -223 0
-40 -44 0
-40 -45 0
-38 -54 0
-37 -53 0
-36 -73 0
-38 -72 0
-37 -88 0
-39 -89 0
-40 -93 0
-38 -95 0
-39 -99 0
-37 -100 0
-37 -101 0
-38 -104 0
-38 -109 0
-39 -106 0
-39 -122 0
-38 -124 0
-36 -129 0
-38 -130 0
-38 -140 0
-38 -139 0
-40 -143 0
-36 -145 0
-36 -149 0
-39 -146 0
-36 -174 0
-36 -171 0
-40 -195 0
-39 -192 0
-38 -197 0
-39 -199 0
-37 -203 0
-37 -204 0
-39 -208 0
-39 -206 0
-36 -218 0
-37 -216 0
-37 -221 0
-40 -225 0
-41 -73 0
-45 -74 0
-42 -88 0
-45 -88 0
-41 -95 0
-42 -92 0
-43 -98 0
-42 -96 0
-43 -111 0
-44 -114 0
-43 -118 0
-45 -116 0
-44 -121 0
-43 -124 0
-43 -131 0
-43 -135 0
-43 -141 0
-42 -141 0
-43 -152 0
-44 -152 0
-44 -168 0
-45 -167 0
-42 -171 0
-44 -172 0
-42 -176 0
-44 -176 0
-41 -187 0
-43 -189 0
-42 -214 0
-45 -212 0
-47 -55 0
-49 -51 0
-50 -75 0
-48 -75 0
-47 -77 0
-48 -79 0
-47 -95 0
-49 -94 0
-47 -120 0
-47 -116 0
-49 -128 0
-46 -129 0
-49 -138 0
-47 -140 0
-49 -154 0
-49 -155 0
-49 -161 0
-47 -165 0
-46 -174 0
-48 -173 0
-47 -182 0
-50 -184 0
-47 -190 0
-47 -188 0
-46 -193 0
-47 -191 0
-50 -196 0
-47 -197 0
-49 -206 0
-50 -210 0
-50 -219 0
-50 -216 0
-51 -64 0
-54 -61 0
-54 -70 0
-52 -70 0
-54 -71 0
-54 -75 0
-55 -94 0
-55 -91 0
-55 -102 0
-54 -101 0
-51 -112 0
-52 -114 0
-53 -120 0
-51 -118 0
-54 -144 0
-53 -142 0
-52 -146 0
-51 -148 0
-55 -159 0
-55 -158 0
-55 -172 0
-52 -171 0
-51 -177 0
-53 -179 0
-54 -186 0
-55 -189 0
-51 -192 0
-55 -191 0
-54 -196 0
-51 -198 0
-53 -204 0
-55 -201 0
-51 -224 0
-52 -221 0
-57 -63 0
-58 -62 0
-60 -69 0
-59 -70 0
-58 -71 0
-57 -75 0
-60 -79 0
-57 -78 0
-57 -81 0
-60 -84 0
-58 -98 0
-60 -97 0
-60 -113 0
-59 -111 0
-59 -116 0
-57 -116 0
-56 -123 0
-58 -122 0
-60 -135 0
-56 -134 0
-59 -139 0
-56 -139 0
-60 -142 0
-57 -141 0
-59 -149 0
-56 -150 0
-56 -151 0
-58 -153 0
-59 -175 0
-59 -172 0
-58 -176 0
-59 -180 0
-57 -189 0
-60 -190 0
-57 -213 0
-56 -212 0
-60 -223 0
-57 -224 0
-62 -73 0
-62 -72 0
-62 -76 0
-64 -79 0
-61 -95 0
-61 -92 0
-63 -98 0
-61 -99 0
-61 -124 0
-65 -121 0
-65 -128 0
-64 -130 0
-65 -135 0
-65 -134 0
-64 -155 0
-64 -154 0
-64 -157 0
-61 -159 0
-63 -166 0
-64 -168 0
-65 -180 0
-64 -177 0
-61 -197 0
-62 -197 0
-63 -201 0
-62 -203 0
-67 -78 0
-68 -79 0
-67 -85 0
-66 -83 0
-70 -86 0
-66 -90 0
-67 -92 0
-68 -94 0
-67 -100 0
-69 -100 0
-67 -114 0
-68 -111 0
-66 -127 0
-69 -130 0
-66 -137 0
-69 -136 0
-69 -141 0
-66 -145 0
-67 -154 0
-66 -153 0
-69 -174 0
-69 -175 0
-66 -181 0
-69 -181 0
-68 -187 0
-67 -188 0
-66 -198 0
-70 -200 0
-67 -205 0
-68 -201 0
-74 -90 0
-73 -89 0
-75 -97 0
-75 -98 0
-74 -114 0
-72 -115 0
-71 -123 0
-75 -123 0
-75 -129 0
-71 -127 0
-72 -132 0
-75 -135 0
-71 -148 0
-74 -147 0
-72 -160 0
-73 -159 0
-72 -161 0
-72 -163 0
-72 -166 0
-73 -167 0
-74 -184 0
-71 -183 0
-73 -205 0
-73 -204 0
-71 -225 0
-75 -224 0
-79 -89 0
-80 -86 0
-79 -93 0
-76 -92 0
-77 -99 0
-80 -98 0
-80 -106 0
-78 -110 0
-76 -115 0
-76 -113 0
-77 -144 0
-77 -145 0
-79 -155 0
-76 -155 0
-80 -157 0
-79 -159 0
-79 -165 0
-80 -161 0
-80 -166 0
-79 -166 0
-80 -176 0
-80 -178 0
-78 -185 0
-80 -184 0
-78 -194 0
-79 -192 0
-79 -197 0
-77 -200 0
-76 -204 0
-77 -205 0
-77 -208 0
-76 -209 0
-78 -215 0
-80 -211 0
-78 -216 0
-79 -216 0
-83 -97 0
-85 -96 0
-85 -112 0
-84 -111 0
-82 -139 0
-83 -136 0
-81 -149 0
-81 -146 0
-85 -156 0
-85 -159 0
-84 -164 0
-85 -163 0
-83 -184 0
-84 -184 0
-81 -210 0
-85 -208 0
-84 -220 0
-81 -216 0
-84 -222 0
-85 -223 0
-88 -105 0
-87 -101 0
-89 -109 0
-90 -109 0
-89 -119 0
-90 -118 0
-88 -125 0
-89 -123 0
-88 -132 0
-90 -135 0
-90 -141 0
-88 -141 0
-87 -152 0
-90 -154 0
-86 -157 0
-90 -159 0
-87 -171 0
-88 -174 0
-88 -182 0
-89 -185 0
-88 -190 0
-87 -190 0
-89 -195 0
-89 -193 0
-87 -204 0
-90 -205 0
-86 -211 0
-88 -211 0
-90 -218 0
-88 -217 0
-87 -224 0
-88 -222 0
-94 -96 0
-92 -97 0
-91 -105 0
-93 -103 0
-92 -118 0
-92 -116 0
-93 -121 0
-95 -124 0
-92 -130 0
-91 -130 0
-91 -140 0
-93 -138 0
-91 -143 0
-95 -141 0
-95 -160 0
-94 -159 0
-91 -170 0
-91 -166 0
-91 -194 0
-92 -193 0
-92 -220 0
-94 -220 0
-92 -223 0
-92 -221 0
-99 -115 0
-100 -112 0
-100 -117 0
-100 -116 0
-97 -122 0
-97 -124 0
-100 -127 0
-99 -127 0
-98 -140 0
-99 -139 0
-99 -162 0
-97 -164 0
-97 -168 0
-98 -167 0
-100 -174 0
-100 -175 0
-100 -198 0
-98 -199 0
-99 -209 0
-96 -210 0
-98 -225 0
-100 -221 0
-102 -123 0
-103 -124 0
-103 -130 0
-105 -127 0
-102 -144 0
-104 -143 0
-101 -156 0
-102 -159 0
-103 -166 0
-103 -167 0
-102 -202 0
-101 -202 0
-101 -206 0
-105 -207 0
-102 -211 0
-101 -211 0
-104 -216 0
-105 -216 0
-108 -129 0
-106 -126 0
-109 -137 0
-109 -140 0
-108 -144 0
-106 -142 0
-107 -159 0
-107 -156 0
-109 -165 0
-106 -161 0
-106 -173 0
-109 -173 0
-110 -179 0
-110 -178 0
-110 -185 0
-106 -183 0
-110 -194 0
-109 -191 0
-107 -206 0
-109 -207 0
-111 -117 0
-115 -120 0
-111 -123 0
-111 -121 0
-112 -129 0
-112 -130 0
-114 -138 0
-113 -140 0
-114 -145 0
-113 -142 0
-115 -149 0
-115 -147 0
-115 -155 0
-114 -154 0
-114 -167 0
-114 -170 0
-115 -173 0
-113 -173 0
-111 -189 0
-113 -189 0
-111 -205 0
-114 -202 0
-114 -219 0
-112 -220 0
-120 -129 0
-120 -130 0
-116 -140 0
-116 -136 0
-118 -144 0
-119 -143 0
-118 -152 0
-117 -151 0
-117 -169 0
-117 -168 0
-118 -182 0
-118 -181 0
-117 -190 0
-119 -190 0
-116 -191 0
-120 -192 0
-120 -198 0
-119 -200 0
-120 -203 0
-120 -204 0
-119 -206 0
-117 -207 0
-124 -127 0
-125 -129 0
-125 -137 0
-121 -138 0
-124 -141 0
-123 -145 0
-122 -148 0
-123 -148 0
-121 -153 0
-125 -153 0
-124 -160 0
-122 -158 0
-124 -165 0
-123 -162 0
-125 -177 0
-122 -177 0
-125 -194 0
-122 -194 0
-122 -204 0
-123 -203 0
-123 -219 0
-123 -216 0
-129 -133 0
-130 -134 0
-130 -138 0
-127 -138 0
-126 -146 0
-128 -148 0
-126 -151 0
-126 -154 0
-128 -160 0
-130 -158 0
-128 -168 0
-127 -169 0
-128 -186 0
-127 -187 0
-128 -193 0
-129 -192 0
-130 -198 0
-126 -196 0
-129 -204 0
-129 -205 0
-126 -207 0
-129 -206 0
-126 -218 0
-130 -220 0
-128 -221 0
-129 -225 0
-132 -140 0
-134 -140 0
-133 -141 0
-133 -145 0
-132 -158 0
-134 -156 0
-134 -175 0
-135 -173 0
-132 -179 0
-131 -180 0
-135 -181 0
-134 -183 0
-132 -188 0
-134 -187 0
-131 -199 0
-134 -196 0
-135 -204 0
-133 -202 0
-133 -209 0
-134 -208 0
-132 -219 0
-135 -220 0
-132 -225 0
-133 -225 0
-138 -152 0
-138 -155 0
-136 -176 0
-136 -178 0
-137 -186 0
-140 -187 0
-136 -193 0
-136 -195 0
-138 -200 0
-139 -199 0
-140 -203 0
-138 -202 0
-140 -207 0
-137 -207 0
-140 -215 0
-136 -212 0
-137 -220 0
-136 -218 0
-136 -223 0
-137 -224 0
-141 -178 0
-145 -176 0
-141 -185 0
-142 -184 0
-141 -199 0
-144 -200 0
-144 -205 0
-145 -202 0
-144 -211 0
-142 -211 0
-144 -216 0
-145 -219 0
-144 -224 0
-141 -224 0
-150 -169 0
-148 -168 0
-150 -172 0
-150 -173 0
-149 -181 0
-148 -185 0
-147 -196 0
-147 -197 0
-150 -201 0
-150 -203 0
-149 -220 0
-147 -219 0
-154 -159 0
-155 -159 0
-154 -168 0
-155 -168 0
-152 -190 0
-154 -189 0
-151 -201 0
-152 -201 0
-155 -219 0
-154 -216 0
-157 -179 0
-156 -176 0
-160 -210 0
-157 -207 0
-160 -216 0
-159 -219 0
-158 -223 0
-156 -223 0
-165 -183 0
-165 -181 0
-163 -189 0
-162 -190 0
-165 -207 0
-165 -208 0
-167 -172 0
-170 -174 0
-166 -184 0
-169 -185 0
-167 -188 0
-169 -190 0
-169 -197 0
-167 -200 0
-167 -206 0
-169 -209 0
-169 -213 0
-170 -212 0
-170 -225 0
-168 -221 0
-172 -181 0
-171 -184 0
-173 -194 0
-173 -191 0
-173 -199 0
-172 -198 0
-171 -205 0
-171 -203 0
-173 -213 0
-171 -212 0
-173 -219 0
-175 -217 0
-171 -224 0
-175 -224 0
-176 -184 0
-180 -182 0
-177 -188 0
-176 -190 0
-179 -195 0
-178 -191 0
-176 -208 0
-180 -210 0
-180 -221 0
-177 -222 0
-184 -194 0
-184 -191 0
-185 -197 0
-185 -198 0
-183 -203 0
-182 -202 0
-184 -207 0
-182 -206 0
-185 -214 0
-184 -214 0
-182 -223 0
-181 -224 0
-188 -193 0
-189 -194 0
-187 -200 0
-190 -196 0
-186 -210 0
-189 -209 0
-190 -212 0
-186 -213 0
-190 -217 0
-189 -220 0
-195 -201 0
-191 -202 0
-191 -222 0
-193 -221 0
-198 -209 0
-200 -206 0
-198 -212 0
-197 -214 0
-198 -220 0
-200 -220 0
-200 -224 0
-200 -222 0
-201 -211 0
-202 -212 0
-205 -224 0
-203 -223 0
-206 -220 0
-209 -220 0
-206 -224 0
-208 -222 0
-212 -216 0
-211 -220 0
-218 -221 0
-217 -223 0
